1 6 5 2 8 6 0 4 1 -1 
3 8 8 0 6 7 -1 4 4 -1 
2 0 1 9 0 9 8 3 1 -1 
8 -1 -1 5 2 -1 4 5 0 -1 
4 8 2 5 0 -1 9 1 1 -1 
3 5 3 8 7 8 6 2 -1 -1 
3 5 -1 2 4 5 0 0 5 -1 
7 9 7 7 7 0 6 6 0 -1 
-1 3 4 1 2 5 1 -1 4 -1 
-1 0 8 7 3 2 8 1 0 -1 
